
Gurobi 6.5.2 (win64) logging started 07/24/16 17:24:39


Gurobi 6.5.2 (win64) logging started 07/24/16 17:24:39

Optimize a model with 1637 rows, 630 columns and 4410 nonzeros
Coefficient statistics:
  Matrix range    [6e-08, 1e+03]
  Objective range [1e+00, 1e+00]
  Bounds range    [1e+00, 1e+00]
  RHS range       [6e-06, 1e+03]
Presolve removed 1423 rows and 404 columns
Presolve time: 0.00s
Presolved: 214 rows, 226 columns, 965 nonzeros
Variable types: 226 continuous, 0 integer (0 binary)

Root relaxation: objective 1.916559e+01, 238 iterations, 0.02 seconds

    Nodes    |    Current Node    |     Objective Bounds      |     Work
 Expl Unexpl |  Obj  Depth IntInf | Incumbent    BestBd   Gap | It/Node Time

*    0     0               0      19.1655940   19.16559  0.00%     -    0s

Explored 0 nodes (238 simplex iterations) in 0.02 seconds
Thread count was 8 (of 8 available processors)

Optimal solution found (tolerance 1.00e-04)
Best objective 1.916559397330e+01, best bound 1.916559397330e+01, gap 0.0%

Wrote requested result file 'H1\instance4\\Results4EC_Sol4.lp'

